100
120
100
99
99
98
98
95
94
94
91
90
89
87
84
80
80
77
75
74
73
73
72
72
72
69
69
65
64
63
62
62
59
59
59
59
59
59
57
56
53
53
51
51
51
50
50
50
49
49
48
47
47
47
47
44
44
43
43
40
39
38
37
36
34
34
32
30
29
29
27
23
23
23
21
18
18
18
18
17
16
16
16
15
15
14
12
12
11
10
10
9
8
8
7
7
5
4
4
4
2
1
